Base=4;
C=71;
start_setup=[|0,0,0,0,0,13,0,4,0,0,0,0,0,2,0,16
             |1,0,0,0,0,0,0,0,0,0,0,0,5,0,0,11
             |0,4,0,0,0,6,0,12,0,0,0,0,0,0,0,0
             |0,0,0,0,2,14,7,0,0,0,3,0,0,0,8,0
             |0,0,0,4,0,0,0,0,0,0,0,0,11,5,15,0
             |0,0,0,0,0,0,0,6,0,0,0,0,0,9,0,0
             |0,0,0,2,0,0,9,0,0,0,0,11,0,0,7,0
             |15,0,0,0,0,0,0,0,0,9,0,0,2,0,1,0
             |0,2,1,11,9,0,0,0,13,0,0,0,0,0,0,0
             |0,0,0,0,0,0,0,0,0,2,11,0,0,0,13,7
             |0,0,0,0,0,0,13,0,0,1,4,0,14,0,11,0
             |7,13,0,0,0,0,0,0,5,0,9,0,0,0,0,0
             |4,0,0,0,0,7,0,0,0,0,0,9,16,0,0,0
             |8,0,0,0,0,0,0,0,4,0,2,0,12,11,10,0
             |0,11,10,0,0,3,0,1,0,15,14,0,0,0,0,0
             |0,0,0,0,0,11,0,9,0,7,6,5,4,3,0,0
|];
target_sum=[33,67,60,7,14,17,54,71,14,9,20,11,45,10,1,11,57,33,23,19,30,43,35,56,7,1,16,58,22,108,2,83,97,16,8,27,28,23,82,12,4,14,51,10,6,13,8,63,9,61,14,52,17,44,17,14,44,57,47,80,1,50,68,17,14,13,12,2,15,26,3];
tile2cage=[
30,30,57,57,57,57,39,39,5,44,2,2,7,62,62,62
,30,32,32,32,57,39,39,39,39,44,2,31,7,7,62,62
,30,30,32,32,32,29,39,39,49,35,2,2,7,7,28,28
,30,70,32,32,29,29,39,53,27,27,2,2,26,8,28,41
,30,70,70,32,33,33,67,53,24,24,8,8,8,8,28,28
,30,30,30,71,33,33,33,45,24,24,8,8,23,10,28,51
,30,3,3,68,33,33,36,36,24,24,8,16,23,23,4,40
,30,3,3,3,33,33,36,36,24,65,65,47,47,23,64,64
,30,3,3,12,33,33,59,60,66,22,22,20,20,20,64,64
,30,37,37,56,15,59,59,60,55,55,22,19,19,48,48,48
,13,37,37,56,25,59,59,60,60,60,22,21,21,48,48,6
,13,13,18,18,42,50,50,60,69,69,22,52,52,52,48,6
,13,13,18,61,42,50,11,60,60,17,17,52,52,52,43,43
,13,38,38,58,50,50,11,60,60,17,34,9,54,54,43,43
,63,63,38,58,58,58,46,46,1,17,34,9,54,54,54,43
,63,63,63,58,58,58,46,1,1,17,17,17,14,14,14,14];
